proyfinal/src/viki/013/experimentInOfficeAgust.take6.output/a1eb86e1-88a0-458e-96f0-a9fba9711fb6.als.dat
{'cnf.clauses': '118081',
 'cnf.totvars': '69608',
 'conflict literals': '128',
 'conflicts': '40',
 'decisions': '13710',
 'memused.mb': '15.33',
 'outcome': 'UNSAT',
 'propagations': '46586',
 'restarts': '1',
 'solver.msecs': 36,
 'task.msecs': 88}
