proyfinal/src/viki/013/experimentInOfficeAgust.take6.output/a1eb86e1-88a0-458e-96f0-a9fba9711fb6.als.out
Reading from standard input... Use '--help' for help.
============================[ Problem Statistics ]=============================
|                                                                             |
|  Number of variables:         69608                                         |
|  Number of clauses:          118081                                         |
|  Parse time:                   0.03 s                                       |
|                                                                             |
============================[ Search Statistics ]==============================
| Conflicts |          ORIGINAL         |          LEARNT          | Progress |
|           |    Vars  Clauses Literals |    Limit  Clauses Lit/Cl |          |
===============================================================================
===============================================================================
restarts              : 1
conflicts             : 40             (1097 /sec)
decisions             : 13710          (0.00 % random) (375967 /sec)
propagations          : 46586          (1277519 /sec)
conflict literals     : 128            (0.00 % deleted)
Memory used           : 15.33 MB
CPU time              : 0.036466 s

UNSATISFIABLE
